     Program PWSCF v.6.1 starts on 30Jun2017 at 16:57:14

     Current dimensions of program PWSCF are:
     Max number of different atomic species (ntypx) = 10
     Max number of k-points (npk) =  40000
     Max angular momentum in pseudopotentials (lmaxx) =  3

     bravais-lattice index     =            0
     lattice parameter (alat)  =       6.4087  a.u.
     unit-cell volume          =    2456.8776 (a.u.)^3
     number of atoms/cell      =            4
     number of atomic types    =            3
     number of electrons       =        36.00
     number of Kohn-Sham states=           18
     kinetic-energy cutoff     =      55.0000  Ry
     charge density cutoff     =     440.0000  Ry
     convergence threshold     =      8.0E-10
     mixing beta               =       0.7000
     number of iterations used =            8  plain     mixing
     Exchange-correlation      = SLA  PW   PBE  PBE ( 1  4  3  4 0 0)

     celldm(1)=   6.408676  celldm(2)=   0.000000  celldm(3)=   0.000000
     celldm(4)=   0.000000  celldm(5)=   0.000000  celldm(6)=   0.000000

     crystal axes: (cart. coord. in units of alat)
               a(1) = (   0.995987   0.089503   0.000000 )
               a(2) = (   0.134888   1.447985   0.000000 )
               a(3) = (   0.000000   0.000000   6.526972 )

     reciprocal axes: (cart. coord. in units 2 pi/alat)
               b(1) = (  1.012506 -0.094321  0.000000 )
               b(2) = ( -0.062585  0.696445  0.000000 )
               b(3) = (  0.000000  0.000000  0.153210 )

     PseudoPot. # 1 for Ag read from file:
     ./pseudo/ag_pbe_v1.4.uspp.F.UPF
     MD5 check sum: d66d668201baa78d5eb5b04ef7011058
     Pseudo is Ultrasoft + core correction, Zval = 19.0
     Generated by new atomic code, or converted to UPF format
     Using radial grid of  887 points,  6 beta functions with:
                l(1) =   0
                l(2) =   0
                l(3) =   1
                l(4) =   1
                l(5) =   2
                l(6) =   2
     Q(r) pseudized with  6 coefficients,  rinner =    1.300   1.300   1.300
                                                       1.300   1.300

     PseudoPot. # 2 for  N read from file:
     ./pseudo/N.pbe.theos.UPF
     MD5 check sum: 1fde47ee573fe9ed3106b9b4217eb757
     Pseudo is Ultrasoft + core correction, Zval =  5.0
     Generated using "atomic" code by A. Dal Corso  v.5.1
     Using radial grid of 1085 points,  4 beta functions with:
                l(1) =   0
                l(2) =   0
                l(3) =   1
                l(4) =   1
     Q(r) pseudized with 0 coefficients

     PseudoPot. # 3 for O  read from file:
     ./pseudo/O_pbe_v1.2.uspp.F.UPF
     MD5 check sum: 734c27235a0248c51dbae37a1fbe46ec
     Pseudo is Ultrasoft + core correction, Zval =  6.0
     Generated by new atomic code, or converted to UPF format
     Using radial grid of  737 points,  5 beta functions with:
                l(1) =   0
                l(2) =   0
                l(3) =   1
                l(4) =   1
                l(5) =   2
     Q(r) pseudized with  8 coefficients,  rinner =    0.900   0.900   0.900
                                                       0.900   0.900

     atomic species   valence    mass     pseudopotential
        Ag            19.00   107.86800     Ag( 1.00)
        N              5.00    14.00670      N( 1.00)
        O              6.00    15.99940     O ( 1.00)

     No symmetry found

                                    s                        frac. trans.

      isym =  1     identity

 cryst.   s( 1) = (     1          0          0      )
                  (     0          1          0      )
                  (     0          0          1      )

 cart.    s( 1) = (  1.0000000  0.0000000  0.0000000 )
                  ( -0.0000000  1.0000000  0.0000000 )
                  (  0.0000000  0.0000000  1.0000000 )

   Cartesian axes

     site n.     atom                  positions (alat units)
         1           O   tau(   1) = (   0.3477541   0.1162668   3.5996371  )
         2           Ag  tau(   2) = (   0.6086335   0.7881073   3.2026757  )
         3           N   tau(   3) = (   0.6137789   1.4069366   3.3027802  )
         4           O   tau(   4) = (   0.6228736   0.1745304   3.0277932  )

   Crystallographic axes

     site n.     atom                  positions (cryst. coord.)
         1           O   tau(   1) = (  0.3411366  0.0592093  0.5515019  )
         2           Ag  tau(   2) = (  0.5419101  0.5107820  0.4906833  )
         3           N   tau(   3) = (  0.4887515  0.9414404  0.5060203  )
         4           O   tau(   4) = (  0.6142012  0.0825683  0.4638894  )

     number of k points=    42
                       cart. coord. in units 2pi/alat
        k(    1) = (   0.0000000   0.0000000   0.0000000), wk =   0.0250000
        k(    2) = (  -0.0078231   0.0870556   0.0000000), wk =   0.0500000
        k(    3) = (  -0.0156462   0.1741112   0.0000000), wk =   0.0500000
        k(    4) = (  -0.0234693   0.2611668   0.0000000), wk =   0.0500000
        k(    5) = (   0.0312924  -0.3482224   0.0000000), wk =   0.0250000
        k(    6) = (   0.1012506  -0.0094321   0.0000000), wk =   0.0500000
        k(    7) = (   0.0934274   0.0776235   0.0000000), wk =   0.0500000
        k(    8) = (   0.0856043   0.1646791   0.0000000), wk =   0.0500000
        k(    9) = (   0.0777812   0.2517347   0.0000000), wk =   0.0500000
        k(   10) = (   0.1325430  -0.3576545   0.0000000), wk =   0.0500000
        k(   11) = (   0.1247199  -0.2705989   0.0000000), wk =   0.0500000
        k(   12) = (   0.1168968  -0.1835433   0.0000000), wk =   0.0500000
        k(   13) = (   0.1090737  -0.0964877   0.0000000), wk =   0.0500000
        k(   14) = (   0.2025011  -0.0188641   0.0000000), wk =   0.0500000
        k(   15) = (   0.1946780   0.0681915   0.0000000), wk =   0.0500000
        k(   16) = (   0.1868549   0.1552471   0.0000000), wk =   0.0500000
        k(   17) = (   0.1790318   0.2423027   0.0000000), wk =   0.0500000
        k(   18) = (   0.2337936  -0.3670865   0.0000000), wk =   0.0500000
        k(   19) = (   0.2259704  -0.2800309   0.0000000), wk =   0.0500000
        k(   20) = (   0.2181473  -0.1929753   0.0000000), wk =   0.0500000
        k(   21) = (   0.2103242  -0.1059197   0.0000000), wk =   0.0500000
        k(   22) = (   0.3037517  -0.0282962   0.0000000), wk =   0.0500000
        k(   23) = (   0.2959286   0.0587594   0.0000000), wk =   0.0500000
        k(   24) = (   0.2881054   0.1458150   0.0000000), wk =   0.0500000
        k(   25) = (   0.2802823   0.2328706   0.0000000), wk =   0.0500000
        k(   26) = (   0.3350441  -0.3765186   0.0000000), wk =   0.0500000
        k(   27) = (   0.3272210  -0.2894630   0.0000000), wk =   0.0500000
        k(   28) = (   0.3193979  -0.2024074   0.0000000), wk =   0.0500000
        k(   29) = (   0.3115748  -0.1153518   0.0000000), wk =   0.0500000
        k(   30) = (   0.4050022  -0.0377282   0.0000000), wk =   0.0500000
        k(   31) = (   0.3971791   0.0493274   0.0000000), wk =   0.0500000
        k(   32) = (   0.3893560   0.1363830   0.0000000), wk =   0.0500000
        k(   33) = (   0.3815329   0.2234386   0.0000000), wk =   0.0500000
        k(   34) = (   0.4362947  -0.3859506   0.0000000), wk =   0.0500000
        k(   35) = (   0.4284716  -0.2988950   0.0000000), wk =   0.0500000
        k(   36) = (   0.4206484  -0.2118394   0.0000000), wk =   0.0500000
        k(   37) = (   0.4128253  -0.1247838   0.0000000), wk =   0.0500000
        k(   38) = (  -0.5062528   0.0471603   0.0000000), wk =   0.0250000
        k(   39) = (  -0.5140759   0.1342159   0.0000000), wk =   0.0500000
        k(   40) = (  -0.5218990   0.2212715   0.0000000), wk =   0.0500000
        k(   41) = (  -0.5297221   0.3083271   0.0000000), wk =   0.0500000
        k(   42) = (  -0.4749603  -0.3010621   0.0000000), wk =   0.0250000

                       cryst. coord.
        k(    1) = (   0.0000000   0.0000000   0.0000000), wk =   0.0250000
        k(    2) = (  -0.0000000   0.1250000   0.0000000), wk =   0.0500000
        k(    3) = (  -0.0000000   0.2500000   0.0000000), wk =   0.0500000
        k(    4) = (   0.0000000   0.3750000   0.0000000), wk =   0.0500000
        k(    5) = (   0.0000000  -0.5000000   0.0000000), wk =   0.0250000
        k(    6) = (   0.1000000   0.0000000   0.0000000), wk =   0.0500000
        k(    7) = (   0.1000000   0.1250000   0.0000000), wk =   0.0500000
        k(    8) = (   0.1000000   0.2500000   0.0000000), wk =   0.0500000
        k(    9) = (   0.1000000   0.3750000   0.0000000), wk =   0.0500000
        k(   10) = (   0.1000000  -0.5000000   0.0000000), wk =   0.0500000
        k(   11) = (   0.1000000  -0.3750000   0.0000000), wk =   0.0500000
        k(   12) = (   0.1000000  -0.2500000   0.0000000), wk =   0.0500000
        k(   13) = (   0.1000000  -0.1250000   0.0000000), wk =   0.0500000
        k(   14) = (   0.2000000   0.0000000   0.0000000), wk =   0.0500000
        k(   15) = (   0.2000000   0.1250000   0.0000000), wk =   0.0500000
        k(   16) = (   0.2000000   0.2500000   0.0000000), wk =   0.0500000
        k(   17) = (   0.2000000   0.3750000   0.0000000), wk =   0.0500000
        k(   18) = (   0.2000000  -0.5000000   0.0000000), wk =   0.0500000
        k(   19) = (   0.2000000  -0.3750000   0.0000000), wk =   0.0500000
        k(   20) = (   0.2000000  -0.2500000   0.0000000), wk =   0.0500000
        k(   21) = (   0.2000000  -0.1250000   0.0000000), wk =   0.0500000
        k(   22) = (   0.3000000   0.0000000   0.0000000), wk =   0.0500000
        k(   23) = (   0.3000000   0.1250000   0.0000000), wk =   0.0500000
        k(   24) = (   0.3000000   0.2500000   0.0000000), wk =   0.0500000
        k(   25) = (   0.3000000   0.3750000   0.0000000), wk =   0.0500000
        k(   26) = (   0.3000000  -0.5000000   0.0000000), wk =   0.0500000
        k(   27) = (   0.3000000  -0.3750000   0.0000000), wk =   0.0500000
        k(   28) = (   0.3000000  -0.2500000   0.0000000), wk =   0.0500000
        k(   29) = (   0.3000000  -0.1250000   0.0000000), wk =   0.0500000
        k(   30) = (   0.4000000   0.0000000   0.0000000), wk =   0.0500000
        k(   31) = (   0.4000000   0.1250000   0.0000000), wk =   0.0500000
        k(   32) = (   0.4000000   0.2500000   0.0000000), wk =   0.0500000
        k(   33) = (   0.4000000   0.3750000   0.0000000), wk =   0.0500000
        k(   34) = (   0.4000000  -0.5000000   0.0000000), wk =   0.0500000
        k(   35) = (   0.4000000  -0.3750000   0.0000000), wk =   0.0500000
        k(   36) = (   0.4000000  -0.2500000   0.0000000), wk =   0.0500000
        k(   37) = (   0.4000000  -0.1250000   0.0000000), wk =   0.0500000
        k(   38) = (  -0.5000000  -0.0000000   0.0000000), wk =   0.0250000
        k(   39) = (  -0.5000000   0.1250000   0.0000000), wk =   0.0500000
        k(   40) = (  -0.5000000   0.2500000   0.0000000), wk =   0.0500000
        k(   41) = (  -0.5000000   0.3750000   0.0000000), wk =   0.0500000
        k(   42) = (  -0.5000000  -0.5000000   0.0000000), wk =   0.0250000

     Initial potential from superposition of free atoms
     Check: negative starting charge=   -0.000530

     starting charge   35.49646, renormalised to   36.00000

     negative rho (up, down):  5.379E-04 0.000E+00
     Starting wfc are   25 randomized atomic wfcs

     Self-consistent Calculation

     iteration #  1     ecut=    55.00 Ry     beta=0.70
     Davidson diagonalization with overlap
     ethr =  1.00E-02,  avg # of iterations =  2.0

     negative rho (up, down):  7.284E-04 0.000E+00

     total energy              =    -379.51274505 Ry
     Harris-Foulkes estimate   =    -380.38700849 Ry
     estimated scf accuracy    <       1.08104634 Ry

[...]

     total energy              =    -380.15959023 Ry
     Harris-Foulkes estimate   =    -380.15959023 Ry
     estimated scf accuracy    <          1.6E-09 Ry

     iteration # 12     ecut=    55.00 Ry     beta=0.70
     Davidson diagonalization with overlap
     ethr =  4.47E-12,  avg # of iterations =  4.0

[...]

     End of self-consistent calculation

          k = 0.0000 0.0000 0.0000 ( 16899 PWs)   bands (ev):

   -94.6528 -58.2269 -58.1632 -58.0533 -29.3011 -24.8168 -14.9495 -12.0190
   -11.4847 -10.9063  -8.2368  -7.4493  -7.3016  -6.9323  -6.6733  -6.4132
    -5.7859  -5.4333

     occupation numbers
     1.0000   1.0000   1.0000   1.0000   1.0000   1.0000   1.0000   1.0000
     1.0000   1.0000   1.0000   1.0000   1.0000   1.0000   1.0000   1.0000
     1.0000   1.0000

          k =-0.0078 0.0871 0.0000 ( 16942 PWs)   bands (ev):

[...]

          k = 0.4128-0.1248 0.0000 ( 16880 PWs)   bands (ev):

[...]

          k =-0.4750-0.3011 0.0000 ( 16896 PWs)   bands (ev):

   -94.6523 -58.2263 -58.1732 -58.0532 -29.1847 -24.8294 -15.2925 -11.9789
   -11.7432 -11.6209  -7.3174  -7.0704  -6.9562  -6.7718  -6.4874  -6.4407
    -5.7259  -4.8193

     occupation numbers
     1.0000   1.0000   1.0000   1.0000   1.0000   1.0000   1.0000   1.0000
     1.0000   1.0000   1.0000   1.0000   1.0000   1.0000   1.0000   1.0000
     1.0000   1.0000

     highest occupied level (ev):    -4.2294

!    total energy              =    -380.15959023 Ry
     Harris-Foulkes estimate   =    -380.15959023 Ry
     estimated scf accuracy    <          6.1E-10 Ry

     The total energy is the sum of the following terms:

     one-electron contribution =   -1749.22214698 Ry
     hartree contribution      =     873.97656786 Ry
     xc contribution           =     -48.67810941 Ry
     ewald contribution        =     543.76409829 Ry

     convergence has been achieved in  12 iterations

     negative rho (up, down):  9.947E-04 0.000E+00

     Forces acting on atoms (cartesian axes, Ry/au):

     atom    1 type  3   force =    -0.00006606    0.00050800    0.00070619
     atom    2 type  1   force =    -0.00001562    0.00013049   -0.00026725
     atom    3 type  2   force =     0.00024186   -0.00007483   -0.00114195
     atom    4 type  3   force =    -0.00016018   -0.00056366    0.00070301
     The non-local contrib.  to forces
     atom    1 type  3   force =     0.87147140   -0.85851962   -1.99609412
     atom    2 type  1   force =     0.00913692   -0.02693979   -0.00053521
     atom    3 type  2   force =     0.00866548    1.64683172    0.19391565
     atom    4 type  3   force =    -0.81660179   -0.56556403    1.69248220
     The ionic contribution  to forces
     atom    1 type  3   force =    -4.75138223    3.10651979   32.84566900
     atom    2 type  1   force =     0.33374456    2.11609629  -10.05176150
     atom    3 type  2   force =     0.11370213   -4.65888760    2.37175517
     atom    4 type  3   force =     4.30393554   -0.56372848  -25.16566268
     The local contribution  to forces
     atom    1 type  3   force =     3.88355310   -2.25065048  -30.85725290
     atom    2 type  1   force =    -0.34283659   -2.08903089   10.05196907
     atom    3 type  2   force =    -0.12155132    3.02535382   -2.56628992
     atom    4 type  3   force =    -3.49146227    1.12733254   23.48217683
     The core correction contribution to forces
     atom    1 type  3   force =    -0.00371992    0.00317048    0.00842062
     atom    2 type  1   force =    -0.00005756   -0.00003272    0.00005490
     atom    3 type  2   force =    -0.00058500   -0.01335359   -0.00049900
     atom    4 type  3   force =     0.00397029    0.00140799   -0.00829459
     The Hubbard contrib.    to forces
     atom    1 type  3   force =     0.00000000    0.00000000    0.00000000
     atom    2 type  1   force =     0.00000000    0.00000000    0.00000000
     atom    3 type  2   force =     0.00000000    0.00000000    0.00000000
     atom    4 type  3   force =     0.00000000    0.00000000    0.00000000
     The SCF correction term to forces
     atom    1 type  3   force =     0.00000973   -0.00001012   -0.00003453
     atom    2 type  1   force =    -0.00000480    0.00003963    0.00000736
     atom    3 type  2   force =     0.00000872   -0.00001714   -0.00002197
     atom    4 type  3   force =    -0.00000381   -0.00000964    0.00000313

     Total force =     0.001748     Total SCF correction =     0.000063

     Computing stress (Cartesian axis) and pressure

     negative rho (up, down):  9.947E-04 0.000E+00
          total   stress  (Ry/bohr**3)                   (kbar)     P=   -0.05
   0.00000199  -0.00000057   0.00000030          0.29     -0.08      0.04
  -0.00000057   0.00000108   0.00000071         -0.08      0.16      0.10
   0.00000030   0.00000071  -0.00000415          0.04      0.10     -0.61

     kinetic stress (kbar)   4347.31     -3.32     56.62
                               -3.32   4299.33    -12.74
                               56.62    -12.74   4265.54

     local   stress (kbar) -89574.29   -548.66   1399.22
                             -548.66 -96092.50   -509.08
                             1399.22   -509.08  88717.03

     nonloc. stress (kbar)    624.01      0.32     11.05
                                0.32    671.27      8.47
                               11.05      8.47    609.64

     hartree stress (kbar)  45957.18    220.54   -455.52
                              220.54  48452.19    181.08
                             -455.52    181.08 -42080.20

     exc-cor stress (kbar)   -801.59      0.43     -3.24
                                0.43   -795.55      0.49
                               -3.24      0.49   -797.32

     corecor stress (kbar)   -119.58      0.00      0.10
                                0.00   -120.61     -0.17
                                0.10     -0.17   -119.78

     ewald   stress (kbar)  39567.26    330.59  -1008.19
                              330.59  43586.02    332.06
                            -1008.19    332.06 -50595.52

     hubbard stress (kbar)      0.00      0.00      0.00
                                0.00      0.00      0.00
                                0.00      0.00      0.00

     london  stress (kbar)      0.00      0.00      0.00
                                0.00      0.00      0.00
                                0.00      0.00      0.00

     XDM     stress (kbar)      0.00      0.00      0.00
                                0.00      0.00      0.00
                                0.00      0.00      0.00

     dft-nl  stress (kbar)      0.00      0.00      0.00
                                0.00      0.00      0.00
                                0.00      0.00      0.00

     TS-vdW  stress (kbar)      0.00      0.00      0.00
                                0.00      0.00      0.00
                                0.00      0.00      0.00

     Writing output data file aiida.save

     General routines

     Parallel routines

   This run was terminated on:  16:57:45  30Jun2017

   JOB DONE.